c t mc
c file mc2022_track1_083.cnf
p cnf 430 1373
4 0
-5 21 -37 0
5 21 37 0
-5 -21 37 0
5 -21 37 0
-6 22 -38 0
6 22 37 -38 0
6 22 -37 38 0
-6 -22 37 -38 0
-6 -22 -37 38 0
6 -22 38 0
-7 23 -39 0
7 23 38 -39 0
7 23 -38 39 0
-7 -23 38 -39 0
-7 -23 -38 39 0
7 -23 39 0
-8 24 -40 0
8 24 39 -40 0
8 24 -39 40 0
-8 -24 39 -40 0
-8 -24 -39 40 0
8 -24 40 0
-9 25 -41 0
9 25 40 -41 0
9 25 -40 41 0
-9 -25 40 -41 0
-9 -25 -40 41 0
9 -25 41 0
-10 26 -42 0
10 26 41 -42 0
10 26 -41 42 0
-10 -26 41 -42 0
-10 -26 -41 42 0
10 -26 42 0
-11 27 -43 0
11 27 42 -43 0
11 27 -42 43 0
-11 -27 42 -43 0
-11 -27 -42 43 0
11 -27 43 0
-12 28 -44 0
12 28 43 -44 0
12 28 -43 44 0
-12 -28 43 -44 0
-12 -28 -43 44 0
12 -28 44 0
-13 29 -45 0
13 29 44 -45 0
13 29 -44 45 0
-13 -29 44 -45 0
-13 -29 -44 45 0
13 -29 45 0
-14 30 -46 0
14 30 45 -46 0
14 30 -45 46 0
-14 -30 45 -46 0
-14 -30 -45 46 0
14 -30 46 0
-15 31 -47 0
15 31 46 -47 0
15 31 -46 47 0
-15 -31 46 -47 0
-15 -31 -46 47 0
15 -31 47 0
-16 32 -48 0
16 32 47 -48 0
16 32 -47 48 0
-16 -32 47 -48 0
-16 -32 -47 48 0
16 -32 48 0
-17 33 -49 0
17 33 48 -49 0
17 33 -48 49 0
-17 -33 48 -49 0
-17 -33 -48 49 0
17 -33 49 0
-18 34 -50 0
18 34 49 -50 0
18 34 -49 50 0
-18 -34 49 -50 0
-18 -34 -49 50 0
18 -34 50 0
-19 35 -51 0
19 35 50 -51 0
19 35 -50 51 0
-19 -35 50 -51 0
-19 -35 -50 51 0
19 -35 51 0
-20 36 -52 0
20 36 51 -52 0
20 36 -51 52 0
-20 -36 51 -52 0
-20 -36 -51 52 0
20 -36 52 0
-20 36 -53 0
20 36 52 -53 0
20 36 -52 53 0
-20 -36 52 -53 0
-20 -36 -52 53 0
20 -36 53 0
-20 36 -54 0
20 36 53 -54 0
20 36 -53 54 0
-20 -36 53 -54 0
-20 -36 -53 54 0
20 -36 54 0
-20 36 -55 0
20 36 54 -55 0
20 36 -54 55 0
-20 -36 54 -55 0
-20 -36 -54 55 0
20 -36 55 0
-20 36 -56 0
20 36 55 -56 0
20 36 -55 56 0
-20 -36 55 -56 0
-20 -36 -55 56 0
20 -36 56 0
-20 36 -57 0
20 36 56 -57 0
20 36 -56 57 0
-20 -36 56 -57 0
-20 -36 -56 57 0
20 -36 57 0
-20 36 -58 0
20 36 57 -58 0
20 36 -57 58 0
-20 -36 57 -58 0
-20 -36 -57 58 0
20 -36 58 0
-20 36 -59 0
20 36 58 -59 0
20 36 -58 59 0
-20 -36 58 -59 0
-20 -36 -58 59 0
20 -36 59 0
-20 36 -60 0
20 36 59 -60 0
20 36 -59 60 0
-20 -36 59 -60 0
-20 -36 -59 60 0
20 -36 60 0
-20 36 -61 0
20 36 60 -61 0
20 36 -60 61 0
-20 -36 60 -61 0
-20 -36 -60 61 0
20 -36 61 0
-20 36 -62 0
20 36 61 -62 0
20 36 -61 62 0
-20 -36 61 -62 0
-20 -36 -61 62 0
20 -36 62 0
-20 36 -63 0
20 36 62 -63 0
20 36 -62 63 0
-20 -36 62 -63 0
-20 -36 -62 63 0
20 -36 63 0
-20 36 -64 0
20 36 63 -64 0
20 36 -63 64 0
-20 -36 63 -64 0
-20 -36 -63 64 0
20 -36 64 0
-20 36 -65 0
20 36 64 -65 0
20 36 -64 65 0
-20 -36 64 -65 0
-20 -36 -64 65 0
20 -36 65 0
-20 36 -66 0
20 36 65 -66 0
20 36 -65 66 0
-20 -36 65 -66 0
-20 -36 -65 66 0
20 -36 66 0
-20 36 -67 0
20 36 66 -67 0
20 36 -66 67 0
-20 -36 66 -67 0
-20 -36 -66 67 0
20 -36 67 0
-20 36 -68 0
20 36 67 -68 0
20 36 -67 68 0
-20 -36 67 -68 0
-20 -36 -67 68 0
20 -36 68 0
-20 -36 -69 0
20 36 -69 0
20 -36 69 0
-20 36 69 0
-68 69 -70 0
68 -69 -70 0
68 69 70 0
-68 -69 70 0
-5 -21 -71 0
5 21 -71 0
5 -21 71 0
-5 21 71 0
-6 -22 -72 0
6 22 -72 0
6 -22 72 0
-6 22 72 0
-7 -23 -73 0
7 23 -73 0
7 -23 73 0
-7 23 73 0
-8 -24 -74 0
8 24 -74 0
8 -24 74 0
-8 24 74 0
-9 -25 -75 0
9 25 -75 0
9 -25 75 0
-9 25 75 0
-10 -26 -76 0
10 26 -76 0
10 -26 76 0
-10 26 76 0
-11 -27 -77 0
11 27 -77 0
11 -27 77 0
-11 27 77 0
-12 -28 -78 0
12 28 -78 0
12 -28 78 0
-12 28 78 0
-13 -29 -79 0
13 29 -79 0
13 -29 79 0
-13 29 79 0
-14 -30 -80 0
14 30 -80 0
14 -30 80 0
-14 30 80 0
-15 -31 -81 0
15 31 -81 0
15 -31 81 0
-15 31 81 0
-16 -32 -82 0
16 32 -82 0
16 -32 82 0
-16 32 82 0
-17 -33 -83 0
17 33 -83 0
17 -33 83 0
-17 33 83 0
-18 -34 -84 0
18 34 -84 0
18 -34 84 0
-18 34 84 0
-19 -35 -85 0
19 35 -85 0
19 -35 85 0
-19 35 85 0
-20 -36 -86 0
20 36 -86 0
20 -36 86 0
-20 36 86 0
-20 -36 -87 0
20 36 -87 0
20 -36 87 0
-20 36 87 0
-20 -36 -88 0
20 36 -88 0
20 -36 88 0
-20 36 88 0
-20 -36 -89 0
20 36 -89 0
20 -36 89 0
-20 36 89 0
-20 -36 -90 0
20 36 -90 0
20 -36 90 0
-20 36 90 0
-20 -36 -91 0
20 36 -91 0
20 -36 91 0
-20 36 91 0
-20 -36 -92 0
20 36 -92 0
20 -36 92 0
-20 36 92 0
-20 -36 -93 0
20 36 -93 0
20 -36 93 0
-20 36 93 0
-20 -36 -94 0
20 36 -94 0
20 -36 94 0
-20 36 94 0
-20 -36 -95 0
20 36 -95 0
20 -36 95 0
-20 36 95 0
-20 -36 -96 0
20 36 -96 0
20 -36 96 0
-20 36 96 0
-20 -36 -97 0
20 36 -97 0
20 -36 97 0
-20 36 97 0
-20 -36 -98 0
20 36 -98 0
20 -36 98 0
-20 36 98 0
-20 -36 -99 0
20 36 -99 0
20 -36 99 0
-20 36 99 0
-20 -36 -100 0
20 36 -100 0
20 -36 100 0
-20 36 100 0
-20 -36 -101 0
20 36 -101 0
20 -36 101 0
-20 36 101 0
-20 -36 -102 0
20 36 -102 0
20 -36 102 0
-20 36 102 0
-71 -103 0
-72 -103 0
-73 -103 0
-74 -103 0
-75 -103 0
-76 -103 0
-77 -103 0
-78 -103 0
-79 -103 0
-80 -103 0
-81 -103 0
-82 -103 0
-83 -103 0
-84 -103 0
-85 -103 0
-86 -103 0
-87 -103 0
-88 -103 0
-89 -103 0
-90 -103 0
-91 -103 0
-92 -103 0
-93 -103 0
-94 -103 0
-95 -103 0
-96 -103 0
-97 -103 0
-98 -103 0
-99 -103 0
-100 -103 0
-101 -103 0
-102 -103 0
71 72 73 74 75 76 77 78 79 80 81 82 83 84 85 86 87 88 89 90 91 92 93 94 95 96 97 98 99 100 101 102 103 0
-70 104 0
-103 104 0
70 103 -104 0
105 106 0
-104 106 0
104 -105 -106 0
106 0
-1 104 -107 0
1 -104 -107 0
-1 -104 107 0
1 104 107 0
-107 0
1 -21 124 0
1 21 -124 0
-1 -5 124 0
-1 5 -124 0
1 -22 125 0
1 22 -125 0
-1 -6 125 0
-1 6 -125 0
1 -23 126 0
1 23 -126 0
-1 -7 126 0
-1 7 -126 0
1 -24 127 0
1 24 -127 0
-1 -8 127 0
-1 8 -127 0
1 -25 128 0
1 25 -128 0
-1 -9 128 0
-1 9 -128 0
1 -26 129 0
1 26 -129 0
-1 -10 129 0
-1 10 -129 0
1 -27 130 0
1 27 -130 0
-1 -11 130 0
-1 11 -130 0
1 -28 131 0
1 28 -131 0
-1 -12 131 0
-1 12 -131 0
1 -29 132 0
1 29 -132 0
-1 -13 132 0
-1 13 -132 0
1 -30 133 0
1 30 -133 0
-1 -14 133 0
-1 14 -133 0
1 -31 134 0
1 31 -134 0
-1 -15 134 0
-1 15 -134 0
1 -32 135 0
1 32 -135 0
-1 -16 135 0
-1 16 -135 0
1 -33 136 0
1 33 -136 0
-1 -17 136 0
-1 17 -136 0
1 -34 137 0
1 34 -137 0
-1 -18 137 0
-1 18 -137 0
1 -35 138 0
1 35 -138 0
-1 -19 138 0
-1 19 -138 0
1 -36 139 0
1 36 -139 0
-1 -20 139 0
-1 20 -139 0
-5 140 -156 0
5 140 156 0
-5 -140 156 0
5 -140 156 0
-6 141 -157 0
6 141 156 -157 0
6 141 -156 157 0
-6 -141 156 -157 0
-6 -141 -156 157 0
6 -141 157 0
-7 142 -158 0
7 142 157 -158 0
7 142 -157 158 0
-7 -142 157 -158 0
-7 -142 -157 158 0
7 -142 158 0
-8 143 -159 0
8 143 158 -159 0
8 143 -158 159 0
-8 -143 158 -159 0
-8 -143 -158 159 0
8 -143 159 0
-9 144 -160 0
9 144 159 -160 0
9 144 -159 160 0
-9 -144 159 -160 0
-9 -144 -159 160 0
9 -144 160 0
-10 145 -161 0
10 145 160 -161 0
10 145 -160 161 0
-10 -145 160 -161 0
-10 -145 -160 161 0
10 -145 161 0
-11 146 -162 0
11 146 161 -162 0
11 146 -161 162 0
-11 -146 161 -162 0
-11 -146 -161 162 0
11 -146 162 0
-12 147 -163 0
12 147 162 -163 0
12 147 -162 163 0
-12 -147 162 -163 0
-12 -147 -162 163 0
12 -147 163 0
-13 148 -164 0
13 148 163 -164 0
13 148 -163 164 0
-13 -148 163 -164 0
-13 -148 -163 164 0
13 -148 164 0
-14 149 -165 0
14 149 164 -165 0
14 149 -164 165 0
-14 -149 164 -165 0
-14 -149 -164 165 0
14 -149 165 0
-15 150 -166 0
15 150 165 -166 0
15 150 -165 166 0
-15 -150 165 -166 0
-15 -150 -165 166 0
15 -150 166 0
-16 151 -167 0
16 151 166 -167 0
16 151 -166 167 0
-16 -151 166 -167 0
-16 -151 -166 167 0
16 -151 167 0
-17 152 -168 0
17 152 167 -168 0
17 152 -167 168 0
-17 -152 167 -168 0
-17 -152 -167 168 0
17 -152 168 0
-18 153 -169 0
18 153 168 -169 0
18 153 -168 169 0
-18 -153 168 -169 0
-18 -153 -168 169 0
18 -153 169 0
-19 154 -170 0
19 154 169 -170 0
19 154 -169 170 0
-19 -154 169 -170 0
-19 -154 -169 170 0
19 -154 170 0
-20 155 -171 0
20 155 170 -171 0
20 155 -170 171 0
-20 -155 170 -171 0
-20 -155 -170 171 0
20 -155 171 0
-20 155 -172 0
20 155 171 -172 0
20 155 -171 172 0
-20 -155 171 -172 0
-20 -155 -171 172 0
20 -155 172 0
-20 155 -173 0
20 155 172 -173 0
20 155 -172 173 0
-20 -155 172 -173 0
-20 -155 -172 173 0
20 -155 173 0
-20 155 -174 0
20 155 173 -174 0
20 155 -173 174 0
-20 -155 173 -174 0
-20 -155 -173 174 0
20 -155 174 0
-20 155 -175 0
20 155 174 -175 0
20 155 -174 175 0
-20 -155 174 -175 0
-20 -155 -174 175 0
20 -155 175 0
-20 155 -176 0
20 155 175 -176 0
20 155 -175 176 0
-20 -155 175 -176 0
-20 -155 -175 176 0
20 -155 176 0
-20 155 -177 0
20 155 176 -177 0
20 155 -176 177 0
-20 -155 176 -177 0
-20 -155 -176 177 0
20 -155 177 0
-20 155 -178 0
20 155 177 -178 0
20 155 -177 178 0
-20 -155 177 -178 0
-20 -155 -177 178 0
20 -155 178 0
-20 155 -179 0
20 155 178 -179 0
20 155 -178 179 0
-20 -155 178 -179 0
-20 -155 -178 179 0
20 -155 179 0
-20 155 -180 0
20 155 179 -180 0
20 155 -179 180 0
-20 -155 179 -180 0
-20 -155 -179 180 0
20 -155 180 0
-20 155 -181 0
20 155 180 -181 0
20 155 -180 181 0
-20 -155 180 -181 0
-20 -155 -180 181 0
20 -155 181 0
-20 155 -182 0
20 155 181 -182 0
20 155 -181 182 0
-20 -155 181 -182 0
-20 -155 -181 182 0
20 -155 182 0
-20 155 -183 0
20 155 182 -183 0
20 155 -182 183 0
-20 -155 182 -183 0
-20 -155 -182 183 0
20 -155 183 0
-20 155 -184 0
20 155 183 -184 0
20 155 -183 184 0
-20 -155 183 -184 0
-20 -155 -183 184 0
20 -155 184 0
-20 155 -185 0
20 155 184 -185 0
20 155 -184 185 0
-20 -155 184 -185 0
-20 -155 -184 185 0
20 -155 185 0
-20 155 -186 0
20 155 185 -186 0
20 155 -185 186 0
-20 -155 185 -186 0
-20 -155 -185 186 0
20 -155 186 0
-20 155 -187 0
20 155 186 -187 0
20 155 -186 187 0
-20 -155 186 -187 0
-20 -155 -186 187 0
20 -155 187 0
-20 -155 -188 0
20 155 -188 0
20 -155 188 0
-20 155 188 0
-187 188 -189 0
187 -188 -189 0
187 188 189 0
-187 -188 189 0
-5 -140 -190 0
5 140 -190 0
5 -140 190 0
-5 140 190 0
-6 -141 -191 0
6 141 -191 0
6 -141 191 0
-6 141 191 0
-7 -142 -192 0
7 142 -192 0
7 -142 192 0
-7 142 192 0
-8 -143 -193 0
8 143 -193 0
8 -143 193 0
-8 143 193 0
-9 -144 -194 0
9 144 -194 0
9 -144 194 0
-9 144 194 0
-10 -145 -195 0
10 145 -195 0
10 -145 195 0
-10 145 195 0
-11 -146 -196 0
11 146 -196 0
11 -146 196 0
-11 146 196 0
-12 -147 -197 0
12 147 -197 0
12 -147 197 0
-12 147 197 0
-13 -148 -198 0
13 148 -198 0
13 -148 198 0
-13 148 198 0
-14 -149 -199 0
14 149 -199 0
14 -149 199 0
-14 149 199 0
-15 -150 -200 0
15 150 -200 0
15 -150 200 0
-15 150 200 0
-16 -151 -201 0
16 151 -201 0
16 -151 201 0
-16 151 201 0
-17 -152 -202 0
17 152 -202 0
17 -152 202 0
-17 152 202 0
-18 -153 -203 0
18 153 -203 0
18 -153 203 0
-18 153 203 0
-19 -154 -204 0
19 154 -204 0
19 -154 204 0
-19 154 204 0
-20 -155 -205 0
20 155 -205 0
20 -155 205 0
-20 155 205 0
-20 -155 -206 0
20 155 -206 0
20 -155 206 0
-20 155 206 0
-20 -155 -207 0
20 155 -207 0
20 -155 207 0
-20 155 207 0
-20 -155 -208 0
20 155 -208 0
20 -155 208 0
-20 155 208 0
-20 -155 -209 0
20 155 -209 0
20 -155 209 0
-20 155 209 0
-20 -155 -210 0
20 155 -210 0
20 -155 210 0
-20 155 210 0
-20 -155 -211 0
20 155 -211 0
20 -155 211 0
-20 155 211 0
-20 -155 -212 0
20 155 -212 0
20 -155 212 0
-20 155 212 0
-20 -155 -213 0
20 155 -213 0
20 -155 213 0
-20 155 213 0
-20 -155 -214 0
20 155 -214 0
20 -155 214 0
-20 155 214 0
-20 -155 -215 0
20 155 -215 0
20 -155 215 0
-20 155 215 0
-20 -155 -216 0
20 155 -216 0
20 -155 216 0
-20 155 216 0
-20 -155 -217 0
20 155 -217 0
20 -155 217 0
-20 155 217 0
-20 -155 -218 0
20 155 -218 0
20 -155 218 0
-20 155 218 0
-20 -155 -219 0
20 155 -219 0
20 -155 219 0
-20 155 219 0
-20 -155 -220 0
20 155 -220 0
20 -155 220 0
-20 155 220 0
-20 -155 -221 0
20 155 -221 0
20 -155 221 0
-20 155 221 0
-190 -222 0
-191 -222 0
-192 -222 0
-193 -222 0
-194 -222 0
-195 -222 0
-196 -222 0
-197 -222 0
-198 -222 0
-199 -222 0
-200 -222 0
-201 -222 0
-202 -222 0
-203 -222 0
-204 -222 0
-205 -222 0
-206 -222 0
-207 -222 0
-208 -222 0
-209 -222 0
-210 -222 0
-211 -222 0
-212 -222 0
-213 -222 0
-214 -222 0
-215 -222 0
-216 -222 0
-217 -222 0
-218 -222 0
-219 -222 0
-220 -222 0
-221 -222 0
190 191 192 193 194 195 196 197 198 199 200 201 202 203 204 205 206 207 208 209 210 211 212 213 214 215 216 217 218 219 220 221 222 0
-189 223 0
-222 223 0
189 222 -223 0
224 225 0
-223 225 0
223 -224 -225 0
225 0
-2 223 -226 0
2 -223 -226 0
-2 -223 226 0
2 223 226 0
-226 0
2 -140 227 0
2 140 -227 0
-2 -5 227 0
-2 5 -227 0
2 -141 228 0
2 141 -228 0
-2 -6 228 0
-2 6 -228 0
2 -142 229 0
2 142 -229 0
-2 -7 229 0
-2 7 -229 0
2 -143 230 0
2 143 -230 0
-2 -8 230 0
-2 8 -230 0
2 -144 231 0
2 144 -231 0
-2 -9 231 0
-2 9 -231 0
2 -145 232 0
2 145 -232 0
-2 -10 232 0
-2 10 -232 0
2 -146 233 0
2 146 -233 0
-2 -11 233 0
-2 11 -233 0
2 -147 234 0
2 147 -234 0
-2 -12 234 0
-2 12 -234 0
2 -148 235 0
2 148 -235 0
-2 -13 235 0
-2 13 -235 0
2 -149 236 0
2 149 -236 0
-2 -14 236 0
-2 14 -236 0
2 -150 237 0
2 150 -237 0
-2 -15 237 0
-2 15 -237 0
2 -151 238 0
2 151 -238 0
-2 -16 238 0
-2 16 -238 0
2 -152 239 0
2 152 -239 0
-2 -17 239 0
-2 17 -239 0
2 -153 240 0
2 153 -240 0
-2 -18 240 0
-2 18 -240 0
2 -154 241 0
2 154 -241 0
-2 -19 241 0
-2 19 -241 0
2 -155 242 0
2 155 -242 0
-2 -20 242 0
-2 20 -242 0
-5 243 -259 0
5 243 259 0
-5 -243 259 0
5 -243 259 0
-6 244 -260 0
6 244 259 -260 0
6 244 -259 260 0
-6 -244 259 -260 0
-6 -244 -259 260 0
6 -244 260 0
-7 245 -261 0
7 245 260 -261 0
7 245 -260 261 0
-7 -245 260 -261 0
-7 -245 -260 261 0
7 -245 261 0
-8 246 -262 0
8 246 261 -262 0
8 246 -261 262 0
-8 -246 261 -262 0
-8 -246 -261 262 0
8 -246 262 0
-9 247 -263 0
9 247 262 -263 0
9 247 -262 263 0
-9 -247 262 -263 0
-9 -247 -262 263 0
9 -247 263 0
-10 248 -264 0
10 248 263 -264 0
10 248 -263 264 0
-10 -248 263 -264 0
-10 -248 -263 264 0
10 -248 264 0
-11 249 -265 0
11 249 264 -265 0
11 249 -264 265 0
-11 -249 264 -265 0
-11 -249 -264 265 0
11 -249 265 0
-12 250 -266 0
12 250 265 -266 0
12 250 -265 266 0
-12 -250 265 -266 0
-12 -250 -265 266 0
12 -250 266 0
-13 251 -267 0
13 251 266 -267 0
13 251 -266 267 0
-13 -251 266 -267 0
-13 -251 -266 267 0
13 -251 267 0
-14 252 -268 0
14 252 267 -268 0
14 252 -267 268 0
-14 -252 267 -268 0
-14 -252 -267 268 0
14 -252 268 0
-15 253 -269 0
15 253 268 -269 0
15 253 -268 269 0
-15 -253 268 -269 0
-15 -253 -268 269 0
15 -253 269 0
-16 254 -270 0
16 254 269 -270 0
16 254 -269 270 0
-16 -254 269 -270 0
-16 -254 -269 270 0
16 -254 270 0
-17 255 -271 0
17 255 270 -271 0
17 255 -270 271 0
-17 -255 270 -271 0
-17 -255 -270 271 0
17 -255 271 0
-18 256 -272 0
18 256 271 -272 0
18 256 -271 272 0
-18 -256 271 -272 0
-18 -256 -271 272 0
18 -256 272 0
-19 257 -273 0
19 257 272 -273 0
19 257 -272 273 0
-19 -257 272 -273 0
-19 -257 -272 273 0
19 -257 273 0
-20 258 -274 0
20 258 273 -274 0
20 258 -273 274 0
-20 -258 273 -274 0
-20 -258 -273 274 0
20 -258 274 0
-20 258 -275 0
20 258 274 -275 0
20 258 -274 275 0
-20 -258 274 -275 0
-20 -258 -274 275 0
20 -258 275 0
-20 258 -276 0
20 258 275 -276 0
20 258 -275 276 0
-20 -258 275 -276 0
-20 -258 -275 276 0
20 -258 276 0
-20 258 -277 0
20 258 276 -277 0
20 258 -276 277 0
-20 -258 276 -277 0
-20 -258 -276 277 0
20 -258 277 0
-20 258 -278 0
20 258 277 -278 0
20 258 -277 278 0
-20 -258 277 -278 0
-20 -258 -277 278 0
20 -258 278 0
-20 258 -279 0
20 258 278 -279 0
20 258 -278 279 0
-20 -258 278 -279 0
-20 -258 -278 279 0
20 -258 279 0
-20 258 -280 0
20 258 279 -280 0
20 258 -279 280 0
-20 -258 279 -280 0
-20 -258 -279 280 0
20 -258 280 0
-20 258 -281 0
20 258 280 -281 0
20 258 -280 281 0
-20 -258 280 -281 0
-20 -258 -280 281 0
20 -258 281 0
-20 258 -282 0
20 258 281 -282 0
20 258 -281 282 0
-20 -258 281 -282 0
-20 -258 -281 282 0
20 -258 282 0
-20 258 -283 0
20 258 282 -283 0
20 258 -282 283 0
-20 -258 282 -283 0
-20 -258 -282 283 0
20 -258 283 0
-20 258 -284 0
20 258 283 -284 0
20 258 -283 284 0
-20 -258 283 -284 0
-20 -258 -283 284 0
20 -258 284 0
-20 258 -285 0
20 258 284 -285 0
20 258 -284 285 0
-20 -258 284 -285 0
-20 -258 -284 285 0
20 -258 285 0
-20 258 -286 0
20 258 285 -286 0
20 258 -285 286 0
-20 -258 285 -286 0
-20 -258 -285 286 0
20 -258 286 0
-20 258 -287 0
20 258 286 -287 0
20 258 -286 287 0
-20 -258 286 -287 0
-20 -258 -286 287 0
20 -258 287 0
-20 258 -288 0
20 258 287 -288 0
20 258 -287 288 0
-20 -258 287 -288 0
-20 -258 -287 288 0
20 -258 288 0
-20 258 -289 0
20 258 288 -289 0
20 258 -288 289 0
-20 -258 288 -289 0
-20 -258 -288 289 0
20 -258 289 0
-20 258 -290 0
20 258 289 -290 0
20 258 -289 290 0
-20 -258 289 -290 0
-20 -258 -289 290 0
20 -258 290 0
-20 -258 -291 0
20 258 -291 0
20 -258 291 0
-20 258 291 0
-290 291 -292 0
290 -291 -292 0
290 291 292 0
-290 -291 292 0
-5 -243 -293 0
5 243 -293 0
5 -243 293 0
-5 243 293 0
-6 -244 -294 0
6 244 -294 0
6 -244 294 0
-6 244 294 0
-7 -245 -295 0
7 245 -295 0
7 -245 295 0
-7 245 295 0
-8 -246 -296 0
8 246 -296 0
8 -246 296 0
-8 246 296 0
-9 -247 -297 0
9 247 -297 0
9 -247 297 0
-9 247 297 0
-10 -248 -298 0
10 248 -298 0
10 -248 298 0
-10 248 298 0
-11 -249 -299 0
11 249 -299 0
11 -249 299 0
-11 249 299 0
-12 -250 -300 0
12 250 -300 0
12 -250 300 0
-12 250 300 0
-13 -251 -301 0
13 251 -301 0
13 -251 301 0
-13 251 301 0
-14 -252 -302 0
14 252 -302 0
14 -252 302 0
-14 252 302 0
-15 -253 -303 0
15 253 -303 0
15 -253 303 0
-15 253 303 0
-16 -254 -304 0
16 254 -304 0
16 -254 304 0
-16 254 304 0
-17 -255 -305 0
17 255 -305 0
17 -255 305 0
-17 255 305 0
-18 -256 -306 0
18 256 -306 0
18 -256 306 0
-18 256 306 0
-19 -257 -307 0
19 257 -307 0
19 -257 307 0
-19 257 307 0
-20 -258 -308 0
20 258 -308 0
20 -258 308 0
-20 258 308 0
-20 -258 -309 0
20 258 -309 0
20 -258 309 0
-20 258 309 0
-20 -258 -310 0
20 258 -310 0
20 -258 310 0
-20 258 310 0
-20 -258 -311 0
20 258 -311 0
20 -258 311 0
-20 258 311 0
-20 -258 -312 0
20 258 -312 0
20 -258 312 0
-20 258 312 0
-20 -258 -313 0
20 258 -313 0
20 -258 313 0
-20 258 313 0
-20 -258 -314 0
20 258 -314 0
20 -258 314 0
-20 258 314 0
-20 -258 -315 0
20 258 -315 0
20 -258 315 0
-20 258 315 0
-20 -258 -316 0
20 258 -316 0
20 -258 316 0
-20 258 316 0
-20 -258 -317 0
20 258 -317 0
20 -258 317 0
-20 258 317 0
-20 -258 -318 0
20 258 -318 0
20 -258 318 0
-20 258 318 0
-20 -258 -319 0
20 258 -319 0
20 -258 319 0
-20 258 319 0
-20 -258 -320 0
20 258 -320 0
20 -258 320 0
-20 258 320 0
-20 -258 -321 0
20 258 -321 0
20 -258 321 0
-20 258 321 0
-20 -258 -322 0
20 258 -322 0
20 -258 322 0
-20 258 322 0
-20 -258 -323 0
20 258 -323 0
20 -258 323 0
-20 258 323 0
-20 -258 -324 0
20 258 -324 0
20 -258 324 0
-20 258 324 0
-293 -325 0
-294 -325 0
-295 -325 0
-296 -325 0
-297 -325 0
-298 -325 0
-299 -325 0
-300 -325 0
-301 -325 0
-302 -325 0
-303 -325 0
-304 -325 0
-305 -325 0
-306 -325 0
-307 -325 0
-308 -325 0
-309 -325 0
-310 -325 0
-311 -325 0
-312 -325 0
-313 -325 0
-314 -325 0
-315 -325 0
-316 -325 0
-317 -325 0
-318 -325 0
-319 -325 0
-320 -325 0
-321 -325 0
-322 -325 0
-323 -325 0
-324 -325 0
293 294 295 296 297 298 299 300 301 302 303 304 305 306 307 308 309 310 311 312 313 314 315 316 317 318 319 320 321 322 323 324 325 0
-292 326 0
-325 326 0
292 325 -326 0
327 328 0
-326 328 0
326 -327 -328 0
328 0
-3 326 -329 0
3 -326 -329 0
-3 -326 329 0
3 326 329 0
-329 0
3 -243 330 0
3 243 -330 0
-3 -5 330 0
-3 5 -330 0
3 -244 331 0
3 244 -331 0
-3 -6 331 0
-3 6 -331 0
3 -245 332 0
3 245 -332 0
-3 -7 332 0
-3 7 -332 0
3 -246 333 0
3 246 -333 0
-3 -8 333 0
-3 8 -333 0
3 -247 334 0
3 247 -334 0
-3 -9 334 0
-3 9 -334 0
3 -248 335 0
3 248 -335 0
-3 -10 335 0
-3 10 -335 0
3 -249 336 0
3 249 -336 0
-3 -11 336 0
-3 11 -336 0
3 -250 337 0
3 250 -337 0
-3 -12 337 0
-3 12 -337 0
3 -251 338 0
3 251 -338 0
-3 -13 338 0
-3 13 -338 0
3 -252 339 0
3 252 -339 0
-3 -14 339 0
-3 14 -339 0
3 -253 340 0
3 253 -340 0
-3 -15 340 0
-3 15 -340 0
3 -254 341 0
3 254 -341 0
-3 -16 341 0
-3 16 -341 0
3 -255 342 0
3 255 -342 0
-3 -17 342 0
-3 17 -342 0
3 -256 343 0
3 256 -343 0
-3 -18 343 0
-3 18 -343 0
3 -257 344 0
3 257 -344 0
-3 -19 344 0
-3 19 -344 0
3 -258 345 0
3 258 -345 0
-3 -20 345 0
-3 20 -345 0
-394 -397 -412 0
394 397 -412 0
-394 397 412 0
394 -397 412 0
-395 -398 -413 0
395 398 -413 0
-395 398 413 0
395 -398 413 0
-396 -399 -414 0
396 399 -414 0
-396 399 414 0
396 -399 414 0
-412 -415 0
-413 -415 0
-414 -415 0
412 413 414 415 0
-105 415 0
105 -415 0
-400 -403 -416 0
400 403 -416 0
-400 403 416 0
400 -403 416 0
-401 -404 -417 0
401 404 -417 0
-401 404 417 0
401 -404 417 0
-402 -405 -418 0
402 405 -418 0
-402 405 418 0
402 -405 418 0
-416 -419 0
-417 -419 0
-418 -419 0
416 417 418 419 0
-224 419 0
224 -419 0
-406 -409 -420 0
406 409 -420 0
-406 409 420 0
406 -409 420 0
-407 -410 -421 0
407 410 -421 0
-407 410 421 0
407 -410 421 0
-408 -411 -422 0
408 411 -422 0
-408 411 422 0
408 -411 422 0
-420 -423 0
-421 -423 0
-422 -423 0
420 421 422 423 0
-327 423 0
327 -423 0
-424 -426 -428 0
424 426 -428 0
-424 426 428 0
424 -426 428 0
-425 -427 -429 0
425 427 -429 0
-425 427 429 0
425 -427 429 0
-428 -430 0
-429 -430 0
428 429 430 0
-4 430 0
4 -430 0
